(declare-const delta_i Int)
(declare-const delta_param0@width Int)
(declare-const delta_j Int)
(declare-const delta_param0@pos Int)
(declare-const delta_param0 Int)
(assert (exists
         ((|param0'?1| Int) (|param0@pos'?2| Int) (|param0@width'?3| Int)
            (|S1,0?4| Real) (|j'?5| Int) (KSUM1?6 Int) (|K1,0?7| Int)
            (K?8 Int) (|param0@width'?9| Int) (|param0@pos'?10| Int)
            (|param0'?11| Int) (|j'?12| Int) (|i'?13| Int) (float_n?14 Real)
            (n?15 Int) (i?16 Int) (m?17 Int) (j?18 Int) (param0?19 Int)
            (param0@pos?20 Int) (param0@width?21 Int))
         (and (<= (- i?16) 0) (<= (- j?18) 0) (< (+ (- n?15) i?16) 0)
                (<= (- K?8) 0) (<= (- |K1,0?7|) 0) (= (+ |K1,0?7| (- K?8)) 0)
                (<= (+ KSUM1?6 (- K?8)) 0)
                (= (+ (- |S1,0?4|) |j'?5| (- |K1,0?7|)) 0)
                (= (+ (- KSUM1?6) |K1,0?7|) 0) (= |S1,0?4| 0)
                (or (and (= K?8 0)
                           (= (+ (- |param0@width'?3|) param0@width?21) 0)
                           (= (+ (- |param0@pos'?2|) param0@pos?20) 0)
                           (= (+ (- |param0'?1|) param0?19) 0)
                           (= (- |j'?5|) 0))
                      (and (<= (+ (- K?8) 1) 0) (<= (+ (- m?17) 1) 0)
                             (= (+ float_n?14 (- |param0'?1|)) 0)
                             (<= (+ (- m?17) |j'?5|) 0)
                             (<= (+ (- |j'?5|) 1) 0)))
                (= (+ |j'?5| (- K?8)) 0) (<= (- K?8) 0) (<= (- |j'?5|) 0)
                (<= (+ m?17 (- |j'?5|)) 0)
                (= (+ |param0@width'?9| (- |param0@width'?3|)) 0)
                (= (+ |param0@pos'?10| (- |param0@pos'?2|)) 0)
                (= (+ |param0'?11| (- |param0'?1|)) 0)
                (= (+ |j'?12| (- |j'?5|)) 0) (= (+ |i'?13| (- i?16) -1) 0)
                (= delta_i (+ |i'?13| (- i?16)))
                (= delta_j (+ |j'?12| (- j?18)))
                (= delta_param0 (+ |param0'?11| (- param0?19)))
                (= delta_param0@pos (+ |param0@pos'?10| (- param0@pos?20)))
                (= delta_param0@width (+ |param0@width'?9|
                                           (- param0@width?21))))))
(check-sat)
